N = 5;
H = 5;
T = 2;

avail = array3d(1..N, 1..H, 1..T, [3, 3, 8, 2, 7, 3, 1, 0, 9, 9, 7, 0, 5, 9, 4, 3, 7, 2, 1, 5, 4, 7, 8, 3, 6, 2, 3, 4, 0, 8, 3, 10, 0, 3, 3, 4, 4, 2, 3, 7, 5, 7, 0, 9, 5, 0, 8, 8, 9, 4]);

r = array2d(1..H, 1..T, [0, 2, 2, 2, 2, 0, 0, 2, 1, 3]);
